(set-option :produce-models true)
(set-logic QF_LRA)
(set-info :notes | Strip-packing problem.|)
(declare-fun x0 () Real)
(declare-fun y0 () Real)
(declare-fun x1 () Real)
(declare-fun y1 () Real)
(declare-fun x2 () Real)
(declare-fun y2 () Real)
(declare-fun x3 () Real)
(declare-fun y3 () Real)
(declare-fun x4 () Real)
(declare-fun y4 () Real)
(declare-fun x5 () Real)
(declare-fun y5 () Real)
(declare-fun x6 () Real)
(declare-fun y6 () Real)
(declare-fun x7 () Real)
(declare-fun y7 () Real)
(declare-fun x8 () Real)
(declare-fun y8 () Real)
(declare-fun x9 () Real)
(declare-fun y9 () Real)
(declare-fun x10 () Real)
(declare-fun y10 () Real)
(declare-fun x11 () Real)
(declare-fun y11 () Real)
(declare-fun z () Real)
(declare-fun c () Real)
(assert (and (= c z) (and (>= x0 0) 
(and (>= y0 0) 
(and (>= x1 0) 
(and (>= y1 0) 
(and (>= x2 0) 
(and (>= y2 0) 
(and (>= x3 0) 
(and (>= y3 0) 
(and (>= x4 0) 
(and (>= y4 0) 
(and (>= x5 0) 
(and (>= y5 0) 
(and (>= x6 0) 
(and (>= y6 0) 
(and (>= x7 0) 
(and (>= y7 0) 
(and (>= x8 0) 
(and (>= y8 0) 
(and (>= x9 0) 
(and (>= y9 0) 
(and (>= x10 0) 
(and (>= y10 0) 
(and (>= x11 0) 
(and (>= y11 0) 
(and (>= z 0) 
(and (>= c 0) 
(and (<= (+ x0 0.0999623073) z) 
(and (<= 0.9280097493 y0) 
(and (<= y0 1.0) 
(and (<= x0 (- 4.6522483075 0.0999623073)) 
(and (>= x0 0) 
(and (<= (+ x1 0.9542606752) z) 
(and (<= 0.8870974916 y1) 
(and (<= y1 1.0) 
(and (<= x1 (- 4.6522483075 0.9542606752)) 
(and (>= x1 0) 
(and (<= (+ x2 0.4390845711) z) 
(and (<= 0.735958001 y2) 
(and (<= y2 1.0) 
(and (<= x2 (- 4.6522483075 0.4390845711)) 
(and (>= x2 0) 
(and (<= (+ x3 0.5852560007) z) 
(and (<= 0.7122998274 y3) 
(and (<= y3 1.0) 
(and (<= x3 (- 4.6522483075 0.5852560007)) 
(and (>= x3 0) 
(and (<= (+ x4 0.8629449927) z) 
(and (<= 0.6494508507 y4) 
(and (<= y4 1.0) 
(and (<= x4 (- 4.6522483075 0.8629449927)) 
(and (>= x4 0) 
(and (<= (+ x5 0.4230817284) z) 
(and (<= 0.6335315882 y5) 
(and (<= y5 1.0) 
(and (<= x5 (- 4.6522483075 0.4230817284)) 
(and (>= x5 0) 
(and (<= (+ x6 0.155287659) z) 
(and (<= 0.556228977 y6) 
(and (<= y6 1.0) 
(and (<= x6 (- 4.6522483075 0.155287659)) 
(and (>= x6 0) 
(and (<= (+ x7 0.4712734413) z) 
(and (<= 0.4487408033 y7) 
(and (<= y7 1.0) 
(and (<= x7 (- 4.6522483075 0.4712734413)) 
(and (>= x7 0) 
(and (<= (+ x8 0.3443278263) z) 
(and (<= 0.3766196691 y8) 
(and (<= y8 1.0) 
(and (<= x8 (- 4.6522483075 0.3443278263)) 
(and (>= x8 0) 
(and (<= (+ x9 0.6610969318) z) 
(and (<= 0.3605043856 y9) 
(and (<= y9 1.0) 
(and (<= x9 (- 4.6522483075 0.6610969318)) 
(and (>= x9 0) 
(and (<= (+ x10 0.2023307704) z) 
(and (<= 0.1761100357 y10) 
(and (<= y10 1.0) 
(and (<= x10 (- 4.6522483075 0.2023307704)) 
(and (>= x10 0) 
(and (<= (+ x11 0.4716503714) z) 
(and (<= 0.1413451423 y11) 
(and (<= y11 1.0) 
(and (<= x11 (- 4.6522483075 0.4716503714)) 
(and (>= x11 0) 
(and (<= c 4.6522483075) 
(and (or (<= (+ x0 0.0999623073) x1) (or (<= (+ x1 0.9542606752) x0) (or (>= (- y0 0.9280097493) y1) (or (>= (- y1 0.8870974916) y0))))) 
(and (or (<= (+ x0 0.0999623073) x2) (or (<= (+ x2 0.4390845711) x0) (or (>= (- y0 0.9280097493) y2) (or (>= (- y2 0.735958001) y0))))) 
(and (or (<= (+ x0 0.0999623073) x3) (or (<= (+ x3 0.5852560007) x0) (or (>= (- y0 0.9280097493) y3) (or (>= (- y3 0.7122998274) y0))))) 
(and (or (<= (+ x0 0.0999623073) x4) (or (<= (+ x4 0.8629449927) x0) (or (>= (- y0 0.9280097493) y4) (or (>= (- y4 0.6494508507) y0))))) 
(and (or (<= (+ x0 0.0999623073) x5) (or (<= (+ x5 0.4230817284) x0) (or (>= (- y0 0.9280097493) y5) (or (>= (- y5 0.6335315882) y0))))) 
(and (or (<= (+ x0 0.0999623073) x6) (or (<= (+ x6 0.155287659) x0) (or (>= (- y0 0.9280097493) y6) (or (>= (- y6 0.556228977) y0))))) 
(and (or (<= (+ x0 0.0999623073) x7) (or (<= (+ x7 0.4712734413) x0) (or (>= (- y0 0.9280097493) y7) (or (>= (- y7 0.4487408033) y0))))) 
(and (or (<= (+ x0 0.0999623073) x8) (or (<= (+ x8 0.3443278263) x0) (or (>= (- y0 0.9280097493) y8) (or (>= (- y8 0.3766196691) y0))))) 
(and (or (<= (+ x0 0.0999623073) x9) (or (<= (+ x9 0.6610969318) x0) (or (>= (- y0 0.9280097493) y9) (or (>= (- y9 0.3605043856) y0))))) 
(and (or (<= (+ x0 0.0999623073) x10) (or (<= (+ x10 0.2023307704) x0) (or (>= (- y0 0.9280097493) y10) (or (>= (- y10 0.1761100357) y0))))) 
(and (or (<= (+ x0 0.0999623073) x11) (or (<= (+ x11 0.4716503714) x0) (or (>= (- y0 0.9280097493) y11) (or (>= (- y11 0.1413451423) y0))))) 
(and (or (<= (+ x1 0.9542606752) x2) (or (<= (+ x2 0.4390845711) x1) (or (>= (- y1 0.8870974916) y2) (or (>= (- y2 0.735958001) y1))))) 
(and (or (<= (+ x1 0.9542606752) x3) (or (<= (+ x3 0.5852560007) x1) (or (>= (- y1 0.8870974916) y3) (or (>= (- y3 0.7122998274) y1))))) 
(and (or (<= (+ x1 0.9542606752) x4) (or (<= (+ x4 0.8629449927) x1) (or (>= (- y1 0.8870974916) y4) (or (>= (- y4 0.6494508507) y1))))) 
(and (or (<= (+ x1 0.9542606752) x5) (or (<= (+ x5 0.4230817284) x1) (or (>= (- y1 0.8870974916) y5) (or (>= (- y5 0.6335315882) y1))))) 
(and (or (<= (+ x1 0.9542606752) x6) (or (<= (+ x6 0.155287659) x1) (or (>= (- y1 0.8870974916) y6) (or (>= (- y6 0.556228977) y1))))) 
(and (or (<= (+ x1 0.9542606752) x7) (or (<= (+ x7 0.4712734413) x1) (or (>= (- y1 0.8870974916) y7) (or (>= (- y7 0.4487408033) y1))))) 
(and (or (<= (+ x1 0.9542606752) x8) (or (<= (+ x8 0.3443278263) x1) (or (>= (- y1 0.8870974916) y8) (or (>= (- y8 0.3766196691) y1))))) 
(and (or (<= (+ x1 0.9542606752) x9) (or (<= (+ x9 0.6610969318) x1) (or (>= (- y1 0.8870974916) y9) (or (>= (- y9 0.3605043856) y1))))) 
(and (or (<= (+ x1 0.9542606752) x10) (or (<= (+ x10 0.2023307704) x1) (or (>= (- y1 0.8870974916) y10) (or (>= (- y10 0.1761100357) y1))))) 
(and (or (<= (+ x1 0.9542606752) x11) (or (<= (+ x11 0.4716503714) x1) (or (>= (- y1 0.8870974916) y11) (or (>= (- y11 0.1413451423) y1))))) 
(and (or (<= (+ x2 0.4390845711) x3) (or (<= (+ x3 0.5852560007) x2) (or (>= (- y2 0.735958001) y3) (or (>= (- y3 0.7122998274) y2))))) 
(and (or (<= (+ x2 0.4390845711) x4) (or (<= (+ x4 0.8629449927) x2) (or (>= (- y2 0.735958001) y4) (or (>= (- y4 0.6494508507) y2))))) 
(and (or (<= (+ x2 0.4390845711) x5) (or (<= (+ x5 0.4230817284) x2) (or (>= (- y2 0.735958001) y5) (or (>= (- y5 0.6335315882) y2))))) 
(and (or (<= (+ x2 0.4390845711) x6) (or (<= (+ x6 0.155287659) x2) (or (>= (- y2 0.735958001) y6) (or (>= (- y6 0.556228977) y2))))) 
(and (or (<= (+ x2 0.4390845711) x7) (or (<= (+ x7 0.4712734413) x2) (or (>= (- y2 0.735958001) y7) (or (>= (- y7 0.4487408033) y2))))) 
(and (or (<= (+ x2 0.4390845711) x8) (or (<= (+ x8 0.3443278263) x2) (or (>= (- y2 0.735958001) y8) (or (>= (- y8 0.3766196691) y2))))) 
(and (or (<= (+ x2 0.4390845711) x9) (or (<= (+ x9 0.6610969318) x2) (or (>= (- y2 0.735958001) y9) (or (>= (- y9 0.3605043856) y2))))) 
(and (or (<= (+ x2 0.4390845711) x10) (or (<= (+ x10 0.2023307704) x2) (or (>= (- y2 0.735958001) y10) (or (>= (- y10 0.1761100357) y2))))) 
(and (or (<= (+ x2 0.4390845711) x11) (or (<= (+ x11 0.4716503714) x2) (or (>= (- y2 0.735958001) y11) (or (>= (- y11 0.1413451423) y2))))) 
(and (or (<= (+ x3 0.5852560007) x4) (or (<= (+ x4 0.8629449927) x3) (or (>= (- y3 0.7122998274) y4) (or (>= (- y4 0.6494508507) y3))))) 
(and (or (<= (+ x3 0.5852560007) x5) (or (<= (+ x5 0.4230817284) x3) (or (>= (- y3 0.7122998274) y5) (or (>= (- y5 0.6335315882) y3))))) 
(and (or (<= (+ x3 0.5852560007) x6) (or (<= (+ x6 0.155287659) x3) (or (>= (- y3 0.7122998274) y6) (or (>= (- y6 0.556228977) y3))))) 
(and (or (<= (+ x3 0.5852560007) x7) (or (<= (+ x7 0.4712734413) x3) (or (>= (- y3 0.7122998274) y7) (or (>= (- y7 0.4487408033) y3))))) 
(and (or (<= (+ x3 0.5852560007) x8) (or (<= (+ x8 0.3443278263) x3) (or (>= (- y3 0.7122998274) y8) (or (>= (- y8 0.3766196691) y3))))) 
(and (or (<= (+ x3 0.5852560007) x9) (or (<= (+ x9 0.6610969318) x3) (or (>= (- y3 0.7122998274) y9) (or (>= (- y9 0.3605043856) y3))))) 
(and (or (<= (+ x3 0.5852560007) x10) (or (<= (+ x10 0.2023307704) x3) (or (>= (- y3 0.7122998274) y10) (or (>= (- y10 0.1761100357) y3))))) 
(and (or (<= (+ x3 0.5852560007) x11) (or (<= (+ x11 0.4716503714) x3) (or (>= (- y3 0.7122998274) y11) (or (>= (- y11 0.1413451423) y3))))) 
(and (or (<= (+ x4 0.8629449927) x5) (or (<= (+ x5 0.4230817284) x4) (or (>= (- y4 0.6494508507) y5) (or (>= (- y5 0.6335315882) y4))))) 
(and (or (<= (+ x4 0.8629449927) x6) (or (<= (+ x6 0.155287659) x4) (or (>= (- y4 0.6494508507) y6) (or (>= (- y6 0.556228977) y4))))) 
(and (or (<= (+ x4 0.8629449927) x7) (or (<= (+ x7 0.4712734413) x4) (or (>= (- y4 0.6494508507) y7) (or (>= (- y7 0.4487408033) y4))))) 
(and (or (<= (+ x4 0.8629449927) x8) (or (<= (+ x8 0.3443278263) x4) (or (>= (- y4 0.6494508507) y8) (or (>= (- y8 0.3766196691) y4))))) 
(and (or (<= (+ x4 0.8629449927) x9) (or (<= (+ x9 0.6610969318) x4) (or (>= (- y4 0.6494508507) y9) (or (>= (- y9 0.3605043856) y4))))) 
(and (or (<= (+ x4 0.8629449927) x10) (or (<= (+ x10 0.2023307704) x4) (or (>= (- y4 0.6494508507) y10) (or (>= (- y10 0.1761100357) y4))))) 
(and (or (<= (+ x4 0.8629449927) x11) (or (<= (+ x11 0.4716503714) x4) (or (>= (- y4 0.6494508507) y11) (or (>= (- y11 0.1413451423) y4))))) 
(and (or (<= (+ x5 0.4230817284) x6) (or (<= (+ x6 0.155287659) x5) (or (>= (- y5 0.6335315882) y6) (or (>= (- y6 0.556228977) y5))))) 
(and (or (<= (+ x5 0.4230817284) x7) (or (<= (+ x7 0.4712734413) x5) (or (>= (- y5 0.6335315882) y7) (or (>= (- y7 0.4487408033) y5))))) 
(and (or (<= (+ x5 0.4230817284) x8) (or (<= (+ x8 0.3443278263) x5) (or (>= (- y5 0.6335315882) y8) (or (>= (- y8 0.3766196691) y5))))) 
(and (or (<= (+ x5 0.4230817284) x9) (or (<= (+ x9 0.6610969318) x5) (or (>= (- y5 0.6335315882) y9) (or (>= (- y9 0.3605043856) y5))))) 
(and (or (<= (+ x5 0.4230817284) x10) (or (<= (+ x10 0.2023307704) x5) (or (>= (- y5 0.6335315882) y10) (or (>= (- y10 0.1761100357) y5))))) 
(and (or (<= (+ x5 0.4230817284) x11) (or (<= (+ x11 0.4716503714) x5) (or (>= (- y5 0.6335315882) y11) (or (>= (- y11 0.1413451423) y5))))) 
(and (or (<= (+ x6 0.155287659) x7) (or (<= (+ x7 0.4712734413) x6) (or (>= (- y6 0.556228977) y7) (or (>= (- y7 0.4487408033) y6))))) 
(and (or (<= (+ x6 0.155287659) x8) (or (<= (+ x8 0.3443278263) x6) (or (>= (- y6 0.556228977) y8) (or (>= (- y8 0.3766196691) y6))))) 
(and (or (<= (+ x6 0.155287659) x9) (or (<= (+ x9 0.6610969318) x6) (or (>= (- y6 0.556228977) y9) (or (>= (- y9 0.3605043856) y6))))) 
(and (or (<= (+ x6 0.155287659) x10) (or (<= (+ x10 0.2023307704) x6) (or (>= (- y6 0.556228977) y10) (or (>= (- y10 0.1761100357) y6))))) 
(and (or (<= (+ x6 0.155287659) x11) (or (<= (+ x11 0.4716503714) x6) (or (>= (- y6 0.556228977) y11) (or (>= (- y11 0.1413451423) y6))))) 
(and (or (<= (+ x7 0.4712734413) x8) (or (<= (+ x8 0.3443278263) x7) (or (>= (- y7 0.4487408033) y8) (or (>= (- y8 0.3766196691) y7))))) 
(and (or (<= (+ x7 0.4712734413) x9) (or (<= (+ x9 0.6610969318) x7) (or (>= (- y7 0.4487408033) y9) (or (>= (- y9 0.3605043856) y7))))) 
(and (or (<= (+ x7 0.4712734413) x10) (or (<= (+ x10 0.2023307704) x7) (or (>= (- y7 0.4487408033) y10) (or (>= (- y10 0.1761100357) y7))))) 
(and (or (<= (+ x7 0.4712734413) x11) (or (<= (+ x11 0.4716503714) x7) (or (>= (- y7 0.4487408033) y11) (or (>= (- y11 0.1413451423) y7))))) 
(and (or (<= (+ x8 0.3443278263) x9) (or (<= (+ x9 0.6610969318) x8) (or (>= (- y8 0.3766196691) y9) (or (>= (- y9 0.3605043856) y8))))) 
(and (or (<= (+ x8 0.3443278263) x10) (or (<= (+ x10 0.2023307704) x8) (or (>= (- y8 0.3766196691) y10) (or (>= (- y10 0.1761100357) y8))))) 
(and (or (<= (+ x8 0.3443278263) x11) (or (<= (+ x11 0.4716503714) x8) (or (>= (- y8 0.3766196691) y11) (or (>= (- y11 0.1413451423) y8))))) 
(and (or (<= (+ x9 0.6610969318) x10) (or (<= (+ x10 0.2023307704) x9) (or (>= (- y9 0.3605043856) y10) (or (>= (- y10 0.1761100357) y9))))) 
(and (or (<= (+ x9 0.6610969318) x11) (or (<= (+ x11 0.4716503714) x9) (or (>= (- y9 0.3605043856) y11) (or (>= (- y11 0.1413451423) y9))))) 
(and (or (<= (+ x10 0.2023307704) x11) (or (<= (+ x11 0.4716503714) x10) (or (>= (- y10 0.1761100357) y11) (or (>= (- y11 0.1413451423) y10))))) )))))))))))))))))))))))))))))))))))))))))))))))))))))))))))))))))))))))))))))))))))))))))))))))))))))))))))))))))))))))))))))))))))))))))))))))))))))))))))
(minimize c)
(check-sat)
(get-objectives)
(exit)
